NAME : XML100_2353_20
DIMENSION : 101
NB_CLUSTERS : 25
CLUSTERING_ALG : DBSCAN
CLUSTERING_PARAMS : eps(28), minSamples(3)
CLUSTERS
1 0
2 3 5 11 14 21 22 23 37 56 75 76 95
3 12 13 18 26 68 72 92
4 6 29 42 51 61 74 100
5 10 24 25
6 77 89 91 98
7 27 54 84 99
8 43 59 67 82
9 1 35 46 79 94
10 2 15 48 81
11 17 53 70 86 90
12 39 55
13 20 49 97
14 33 60 63 71
15 30 41 52 73 87
16 50 65 85
17 31 62 64 80 96
18 16 32 40 44 58
19 4 45 83
20 34 36 66
21 19 78
22 8 9 38
23 57 69 88
24 28 47
25 7 93
EOF